&GLOBAL
   PRINT_LEVEL MEDIUM
   PROJECT fatman.calc
   RUN_TYPE ENERGY
&END GLOBAL
@if yes /= yes
@include "test02.fragment.inp"
@endif
