&GLOBAL
   PROJECT NaCl
   RUN_TYPE ENERGY_FORCE
   PRINT_LEVEL MEDIUM
&END GLOBAL

&FORCE_EVAL
   METHOD Quickstep
   &DFT
      BASIS_SET_FILE_NAME  BASIS_MOLOPT
      BASIS_SET_FILE_NAME  BASIS_MOLOPT_UCL
      POTENTIAL_FILE_NAME  POTENTIAL

      UKS .TRUE.

      &QS
         METHOD GPW
         EXTRAPOLATION USE_GUESS
      &END QS

      &POISSON
         PERIODIC XYZ
      &END POISSON

      &SCF
         SCF_GUESS ATOMIC
         MAX_SCF 50
         EPS_SCF 1.0E-8
      &END SCF

@IF ${HP-1}
      &KPOINTS
         SCHEME MONKHORST-PACK 8 8 8
         FULL_GRID .FALSE.
         SYMMETRY .FALSE.
      &END KPOINTS
@ENDIF

   &END DFT
&END FORCE_EVAL
