
&GLOBAL
   PROJECT NaCl
   RUN_TYPE ENERGY_FORCE
   PRINT_LEVEL MEDIUM
&END GLOBAL

&FORCE_EVAL
   METHOD Quickstep
   &DFT
      BASIS_SET_FILE_NAME  BASIS_MOLOPT
      POTENTIAL_FILE_NAME  POTENTIAL

      &POISSON
         PERIODIC XYZ
      &END POISSON

      &SCF
         SCF_GUESS ATOMIC
         EPS_SCF 1.0E-6
         MAX_SCF 300
         ADDED_MOS 10
         &DIAGONALIZATION
            ALGORITHM STANDARD
            EPS_ADAPT 0.01
         &END DIAGONALIZATION
         &SMEAR  ON
            METHOD FERMI_DIRAC
            ELECTRONIC_TEMPERATURE [K] 300
         &END SMEAR

         &MIXING
            METHOD BROYDEN_MIXING
            ALPHA 0.2
            BETA 1.5
            NBROYDEN 8
         &END MIXING

      &END SCF
      &XC
         &XC_FUNCTIONAL PBE
         &END XC_FUNCTIONAL
      &END XC

   &END DFT

   &SUBSYS
      &CELL
         ABC [angstrom] 5.690301476175671 5.69030147617567122 5.6903014761756712
         PERIODIC XYZ
      &END CELL
      &COORD
         SCALED
             Na 0.0  0.0  0.0
             Na 0.0  0.5  0.5
             Na 0.5  0.0  0.5
             Na 0.5  0.5  0.0
             Cl 0.5  0.5  0.5
             Cl 0.5  0.0  0.0
             Cl 0.0  0.5  0.0
             Cl 0.0  0.0  0.5
      &END COORD
      &KIND Na
         ELEMENT Na
         BASIS_SET DZVP-MOLOPT-SR-GTH
         POTENTIAL GTH-PBE
      &END KIND
      &KIND Cl
         ELEMENT Cl
         BASIS_SET DZVP-MOLOPT-GTH
         POTENTIAL GTH-PBE
      &END KIND

   &END SUBSYS

  &PRINT
      &FORCES
        FILENAME filename
      &END FORCES
   &END PRINT
&END FORCE_EVAL
