
&GLOBAL
   PROJECT NaCl
   RUN_TYPE ENERGY_FORCE
   PRINT_LEVEL MEDIUM
&END GLOBAL

&FORCE_EVAL
   METHOD Quickstep
   &DFT
      BASIS_SET_FILE_NAME  BASIS_MOLOPT
      POTENTIAL_FILE_NAME  POTENTIAL

      &POISSON
         PERIODIC XYZ
      &END POISSON

      &MGRID
         CUTOFF 800
         NGRIDS 6
         REL_CUTOFF 80
      &END MGRID

      &SCF
         MAX_SCF 20
         &OT ON
         &END OT
         &OUTER_SCF ON
            MAX_SCF 10
         &END OUTER_SCF
      &END SCF

      &XC
         &XC_FUNCTIONAL PBE
         &END XC_FUNCTIONAL
      &END XC
   &END DFT

   &SUBSYS
      &CELL
         A 0 0
         B 0 5
         C 0 0 5
         PERIODIC XYZ
      &END CELL
      &COORD
         SCALED
         Na 0.0 0.0 0.0
         Na 0.0 0.5 0.5
         Na 0.5 0.0 0.5
         Na 0.5 0.5 0.0
         Cl 0.5 0.5 0.5
         Cl 0.5 0.0 0.0
         Cl 0.0 0.5 0.0
         Cl 0.0 0.0 0.5
      &END COORD
      &KIND Na
         ELEMENT Na
         BASIS_SET DZVP-MOLOPT-SR-GTH
         POTENTIAL GTH-PBE
      &END KIND
      &KIND Cl
         ELEMENT Cl
         BASIS_SET DZVP-MOLOPT-GTH
         POTENTIAL GTH-PBE
      &END KIND
   &END SUBSYS
&END FORCE_EVAL
