&GLOBAL
   PRINT_LEVEL \
        MEDIUM
   PROJECT \
        "fatman.calc"
   RUN_TYPE \
        ENERGY
&END GLOBAL
