&FORCE_EVAL
   &SUBSYS
      &KIND H
         BASIS_SET AUX_FIT pFIT3
         BASIS_SET TZV2P-MOLOPT-GTH
      &END KIND
   &END SUBSYS
&END FORCE_EVAL
