&FORCE_EVAL
   METHOD QUICKSTEP
   &DFT
      BASIS_SET_FILE_NAME BASIS_MOLOPT
      BASIS_SET_FILE_NAME BASIS_MOLOPT_UCL
      POTENTIAL_FILE_NAME POTENTIALS
   &END DFT
   &SUBSYS
      &KIND H
         POTENTIAL GTH-PBE-q1
         BASIS_SET TZV2P-MOLOPT-GTH
         BASIS_SET AUX_FIT pFIT3
      &END KIND
   &END SUBSYS
&END FORCE_EVAL
