&GLOBAL
   PRINT_LEVEL MEDIUM
   PROJECT "fatman.calc"
   RUN_TYPE ENERGY
&END GLOBAL
@if 0
@include "test02.fragment.inp"
@endif
