# calc.inp: AUTOGENERATED by FATMAN for Task 09dfe8e7-c224-4a36-887d-ccef6677862b
&FORCE_EVAL
   METHOD QUICKSTEP
   &DFT
      BASIS_SET_FILE_NAME ./BASIS_SETS
      POTENTIAL_FILE_NAME ./POTENTIALS
      UKS .TRUE.
      &MGRID
         CUTOFF 800
         NGRIDS 6
         REL_CUTOFF 80
      &END MGRID
      &POISSON
         PERIODIC NONE
         POISSON_SOLVER WAVELET
      &END POISSON
      &PRINT
         &MOMENTS
            PERIODIC .FALSE.
            REFERENCE com
         &END MOMENTS
      &END PRINT
      &QS
         EPS_DEFAULT 1e-20
         EPS_PGF_ORB 1e-12
      &END QS
      &SCF
         EPS_SCF 1e-07
         MAX_SCF 30
         &OT ON
            LINESEARCH 3PNT
            MINIMIZER CG
            PRECONDITIONER FULL_ALL
            STEPSIZE 0.075
         &END OT
         &OUTER_SCF ON
            EPS_SCF 1e-07
            MAX_SCF 20
         &END OUTER_SCF
      &END SCF
      &XC
         &XC_FUNCTIONAL PBE
         &END XC_FUNCTIONAL
      &END XC
   &END DFT
   &SUBSYS
      &CELL
         A [angstrom] 17.0 0.0 0.0
         B [angstrom] 0.0 17.0 0.0
         C [angstrom] 0.0 0.0 17.0
         PERIODIC NONE
      &END CELL
      &KIND O
         ELEMENT O
         POTENTIAL GTH-PBE-q6
         BASIS_SET ORB TZVP-MOLOPT-SR-GTH
      &END KIND
      &KIND C
         ELEMENT C
         POTENTIAL GTH-PBE-q4
         BASIS_SET ORB TZVP-MOLOPT-SR-GTH
      &END KIND
      &KIND Ti
         ELEMENT Ti
         POTENTIAL GTH-PBE-q12
         BASIS_SET ORB TZVP-MOLOPT-SR-GTH
      &END KIND
      &TOPOLOGY
         COORD_FILE ./struct.xyz
         COORD_FILE_FORMAT XYZ
      &END TOPOLOGY
   &END SUBSYS
&END FORCE_EVAL
&GLOBAL
   PRINT_LEVEL MEDIUM
   PROJECT fatman.calc
   RUN_TYPE ENERGY
&END GLOBAL